<instance format="XCSP3" type="CSP">
  <variables>
    <var id="x0"> 0 3 9 17 </var>
    <var id="x1"> 3 6 11 17 </var>
    <var id="x2"> 2 3 9 </var>
    <var id="x3"> 0 3 6 11 </var>
    <var id="x4"> 0 9 11 17 </var>
    <var id="x5"> 10 </var>
    <var id="x6"> 0 2 </var>
    <var id="x7"> 2 3 9 17 </var>
    <var id="x8"> 1 9 14 </var>
    <var id="x9"> 5 9 13 16 </var>
    <var id="x10"> 5 13..17 </var>
    <var id="x11"> 9 14 15 17 </var>
    <var id="x12"> 1 5 13 15 </var>
    <var id="x13"> 1 5 13 15 17 </var>
    <var id="x14"> 5 9 14 17 </var>
    <var id="x15"> 1 9 14 17 </var>
    <var id="x16"> 3 5 11 16 17 </var>
    <var id="x17"> 5 13 16 17 </var>
    <var id="x18"> 3 5 9 17 </var>
    <var id="x19"> 3 5 11 16 </var>
    <var id="x20"> 2 3 5 9 17 </var>
    <var id="x21"> 2 5 </var>
    <var id="x22"> 5 13 17 </var>
    <var id="x23"> 3 5 13 16 </var>
    <var id="x24"> 3 8 17 </var>
    <var id="x25"> 5 10 14 16 17 </var>
    <var id="x26"> 3 5 8 16 </var>
    <var id="x27"> 8 10 16 </var>
    <var id="x28"> 5 14 </var>
    <var id="x29"> 3 5 8 10 16 </var>
    <var id="x30"> 3 10 14 17 </var>
    <var id="x31"> 1 4 7 9 10 </var>
    <var id="x32"> 4 7 9 13 </var>
    <var id="x33"> 4 5 15 </var>
    <var id="x34"> 10 13 </var>
    <var id="x35"> 5 7 9 10 15 </var>
    <var id="x36"> 1 5 10 13 15 </var>
    <var id="x37"> 1 4 5 7 15 </var>
    <var id="x38"> 1 5 10 13 </var>
    <var id="x39"> 1 9 10 </var>
    <var id="x40"> 3 8 9 13 </var>
    <var id="x41"> 3 9 10 15 </var>
    <var id="x42"> 3 8 15 </var>
    <var id="x43"> 8..10 15 </var>
    <var id="x44"> 8 10 12 13 15 </var>
    <var id="x45"> 1 10 13 15 </var>
    <var id="x46"> 1 3 8 10 13 </var>
    <var id="x47"> 10 14 </var>
    <var id="x48"> 10 13 14 </var>
    <var id="x49"> 5 10 13..16 </var>
    <var id="x50"> 5 8 15 16 </var>
    <var id="x51"> 8 10 14 15 </var>
    <var id="x52"> 2 5 </var>
    <var id="x53"> 2 5 10 13 15 </var>
    <var id="x54"> 2 5 8 14 </var>
    <var id="x55"> 6 7 10 14 </var>
    <var id="x56"> 7 8 13 17 </var>
    <var id="x57"> 6 10 13 14 17 </var>
    <var id="x58"> 7 10 17 </var>
    <var id="x59"> 6 8 10 14 17 </var>
    <var id="x60"> 13 17 </var>
    <var id="x61"> 8 14 17 </var>
    <var id="x62"> 3 6 15 </var>
    <var id="x63"> 0 3 6 8 15 </var>
    <var id="x64"> 6 8 10 14 15 </var>
    <var id="x65"> 0 3 </var>
    <var id="x66"> 7 8 10 15 </var>
    <var id="x67"> 0 7 14 15 </var>
    <var id="x68"> 10 15 </var>
    <var id="x69"> 3 7 10 14 </var>
    <var id="x70"> 0 3 4 7 9 17 </var>
    <var id="x71"> 3..5 15 17 </var>
    <var id="x72"> 0 3 17 </var>
    <var id="x73"> 3 5 7 9 </var>
    <var id="x74"> 5 7 15 17 </var>
    <var id="x75"> 9 15 17 </var>
    <var id="x76"> 0 5 9 17 </var>
    <var id="x77"> 3 7 9 17 </var>
    <var id="x78"> 4 6 10 </var>
    <var id="x79"> 6 10 17 </var>
    <var id="x80"> 5 8 </var>
    <var id="x81"> 5 10 15 17 </var>
    <var id="x82"> 5 12 17 </var>
    <var id="x83"> 4 5 17 </var>
    <var id="x84"> 4 8 10 12 15 </var>
    <var id="x85"> 5 8 12 17 </var>
    <var id="x86"> 0 3 13 17 </var>
    <var id="x87"> 3 5 17 </var>
    <var id="x88"> 0 3 5 11 16 </var>
    <var id="x89"> 11 17 </var>
    <var id="x90"> 0 5 11 13 16 17 </var>
    <var id="x91"> 1 3 5 13 </var>
    <var id="x92"> 3 5 17 </var>
    <var id="x93"> 0 1 3 5 13 16 </var>
    <var id="x94"> 3 7..9 13 </var>
    <var id="x95"> 7 13 17 </var>
    <var id="x96"> 3 7 9 17 </var>
    <var id="x97"> 9 11 13 17 </var>
    <var id="x98"> 3 13 </var>
    <var id="x99"> 4 7 8 13 </var>
    <var id="x100"> 4 13 17 </var>
    <var id="x101"> 3 8 13 </var>
    <var id="x102"> 0 3 17 </var>
    <var id="x103"> 3 6 15..17 </var>
    <var id="x104"> 0 3 6 10 17 </var>
    <var id="x105"> 6 10 15 17 </var>
    <var id="x106"> 0 16 17 </var>
    <var id="x107"> 0 1 3 17 </var>
    <var id="x108"> 1 3 10 15 </var>
    <var id="x109"> 1 3 10 17 </var>
    <var id="x110"> 3 5 7 13 </var>
    <var id="x111"> 5 7 13 14 </var>
    <var id="x112"> 0 3 5 11 </var>
    <var id="x113"> 0 1 3 5 </var>
    <var id="x114"> 7 13 </var>
    <var id="x115"> 0 1 5 7 14 </var>
    <var id="x116"> 1 5 13 </var>
    <var id="x117"> 1 3 7 11 14 </var>
    <var id="x118"> 4 7 9 14 </var>
    <var id="x119"> 3..5 16 </var>
    <var id="x120"> 3 5 7 9 </var>
    <var id="x121"> 2..5 9 </var>
    <var id="x122"> 2 4 5 7 14 </var>
    <var id="x123"> 2 3 5 9 14 </var>
    <var id="x124"> 3 5 16 </var>
    <var id="x125"> 3 7 9 14 </var>
    <var id="x126"> 1 4 9..11 </var>
    <var id="x127"> 4 5 11 15 </var>
    <var id="x128"> 0 10 11 </var>
    <var id="x129"> 0 1 4 5 9 </var>
    <var id="x130"> 4 10 15 </var>
    <var id="x131"> 0 1 4 5 15 </var>
    <var id="x132"> 0 1 5 10 </var>
    <var id="x133"> 1 9..11 </var>
    <var id="x134"> 4 7 17 </var>
    <var id="x135"> 11 17 </var>
    <var id="x136"> 2 5 7 </var>
    <var id="x137"> 5 11 12 17 </var>
    <var id="x138"> 2 5 </var>
    <var id="x139"> 4 5 17 </var>
    <var id="x140"> 2 5 12 17 </var>
  </variables>
  <constraints>
    <group>
      <allDifferent> %... </allDifferent>
      <args> x0 x1 x2 x3 x4 x5 x6 x7 </args>
      <args> x8 x9 x10 x11 x12 x13 x14 x15 </args>
      <args> x16 x17 x18 x19 x20 x21 x22 x23 </args>
      <args> x24 x25 x26 x27 x28 x29 x30 </args>
      <args> x31 x32 x33 x34 x35 x36 x37 x38 </args>
      <args> x39 x40 x41 x42 x43 x44 x45 x46 </args>
      <args> x47 x48 x49 x50 x51 x52 x53 x54 </args>
      <args> x55 x56 x57 x58 x59 x60 x61 </args>
      <args> x62 x63 x64 x65 x66 x67 x68 x69 </args>
      <args> x70 x71 x72 x73 x74 x75 x76 x77 </args>
      <args> x78 x79 x80 x81 x82 x83 x84 x85 </args>
      <args> x86 x87 x88 x89 x90 x91 x92 x93 </args>
      <args> x94 x95 x96 x97 x98 x99 x100 x101 </args>
      <args> x102 x103 x104 x105 x106 x107 x108 x109 </args>
      <args> x110 x111 x112 x113 x114 x115 x116 x117 </args>
      <args> x118 x119 x120 x121 x122 x123 x124 x125 </args>
      <args> x126 x127 x128 x129 x130 x131 x132 x133 </args>
      <args> x134 x135 x136 x137 x138 x139 x140 </args>
      <args> x8 x31 x39 x47 x55 x78 x118 x126 </args>
      <args> x0 x24 x32 x56 x70 x86 x102 x134 </args>
      <args> x1 x16 x33 x62 x71 x103 x119 x127 </args>
      <args> x34 x48 x57 x72 x79 x104 x128 x135 </args>
      <args> x2 x9 x40 x73 x80 x94 x110 x136 </args>
      <args> x10 x17 x25 x49 x74 x81 x95 x111 </args>
      <args> x18 x35 x41 x58 x87 x96 x120 </args>
      <args> x3 x19 x26 x42 x50 x63 x88 x112 </args>
      <args> x11 x43 x51 x59 x64 x75 x89 x105 </args>
      <args> x4 x60 x76 x82 x90 x97 x106 x137 </args>
      <args> x20 x52 x65 x83 x107 x113 x121 x129 </args>
      <args> x12 x36 x53 x91 x98 x108 x138 </args>
      <args> x5 x27 x44 x66 x84 x99 x114 x130 </args>
      <args> x6 x21 x28 x37 x67 x115 x122 x131 </args>
      <args> x13 x22 x45 x68 x100 x116 x139 </args>
      <args> x7 x14 x54 x61 x85 x92 x123 x140 </args>
      <args> x23 x29 x38 x46 x93 x101 x124 x132 </args>
      <args> x15 x30 x69 x77 x109 x117 x125 x133 </args>
    </group>
  </constraints>
</instance>

